c numero: 31
c nombre: n-40-d-0.1
c densidad: 0.1
p edges 40 85
e 1 15
e 1 20
e 1 21
e 1 30
e 2 4
e 2 20
e 2 23
e 2 37
e 2 38
e 2 39
e 3 7
e 3 17
e 3 18
e 3 22
e 3 39
e 4 25
e 4 31
e 4 37
e 5 6
e 5 12
e 5 24
e 5 31
e 5 35
e 5 39
e 6 19
e 6 26
e 6 37
e 7 12
e 7 30
e 7 39
e 8 14
e 8 16
e 8 21
e 8 22
e 8 35
e 8 38
e 8 40
e 9 23
e 10 20
e 10 31
e 11 19
e 11 22
e 12 37
e 13 32
e 14 19
e 15 19
e 15 27
e 16 20
e 16 24
e 16 31
e 16 34
e 16 35
e 17 36
e 17 40
e 18 22
e 18 28
e 18 34
e 19 31
e 19 38
e 20 24
e 20 37
e 21 25
e 22 39
e 23 34
e 24 27
e 25 27
e 25 35
e 25 39
e 25 40
e 26 27
e 26 29
e 26 38
e 27 40
e 28 30
e 28 31
e 28 35
e 28 36
e 28 37
e 29 31
e 29 37
e 32 36
e 33 38
e 33 39
e 35 39
e 37 39
